1000
[200,202,203,204,206,207,208,210,211,212,213,214,215,216,217,218,220,221,222,223,224,226,227,230,231,232,234,235,237,238,239,240,241,243,244,245,246,247,250,252,254,255,256,257,258,259,260,261,262,263,264,265,267,268,269,270,271,272,274,276,279,280,281,282,283,284,285,286,287,288,290,291,292,293,294,295,297,298,300,301,302,303,304,305,307,309,310,311,312,313,314,315,317,318,319,323,325,326,327,328,329,330,333,335,336,337,338,339,342,343,344,345,347,348,349,351,352,353,354,355,356,357,358,359,361,362,363,364,366,367,368,369,370,371,372,373,374,375,376,377,378,379,380,381,382,383,384,385,386,387,388,390,392,393,394,396,397,398,399,401,402,403,404,405,406,407,408,409,411,413,414,415,416,418,419,420,421,422,424,427,428,430,432,433,434,435,439,440,441,443,444,445,446,447,448,450,451,453,455,457,458,460,462,463,464,465,466,467,468,470,472,473,474,475,476,477,478,480,482,483,484,485,486,487,488,489,490,491,492,493,495,496,497,498,499,500,501,502,503,504,506,507,509,510,511,512,513,515,517,520,521,523,524,525,527,528,529,530,532,533,534,535,536,537,538,539,541,542,544,545,546,547,548,549,550,551,555,556,557,559,561,562,563,564,565,567,568,569,570,573,574,575,576,578,579,581,582,583,584,585,586,587,588,590,592,594,596,598,599,600,602,603,604,606,607,608,609,610,611,612,614,615,616,618,620,621,623,624,625,626,627,630,631,632,633,636,637,638,639,640,641,643,644,645,646,647,649,650,651,652,654,655,656,658,659,660,661,662,663,664,665,666,668,669,670,671,673,675,677,678,679,680,681,682,683,684,685,686,687,688,689,690,692,694,695,696,697,699]
[2,3,1,2,1,4,2,2,1,1,1,4,3,1,2,1,3,1,1,1,1,4,2,1,3,1,1,1,1,2,1,1,2,2,1,1,2,2,1,1,3,1,1,2,2,2,1,1,1,3,1,2,2,2,1,1,1,4,1,1,2,3,1,3,1,4,2,3,1,3,1,2,4,4,1,4,1,2,1,2,1,2,2,2,3,2,3,2,1,1,1,1,1,2,1,1,2,1,1,4,1,2,2,1,2,4,3,1,2,1,2,3,3,2,2,2,1,2,1,2,1,2,2,3,1,2,1,4,3,2,6,1,2,1,4,3,2,3,2,1,1,4,3,2,3,4,1,2,2,1,1,2,1,1,2,2,3,1,4,2,2,1,1,2,2,3,2,2,4,1,2,2,1,2,1,4,1,1,3,2,2,1,1,1,5,4,1,1,1,1,2,2,1,2,1,1,2,2,1,2,1,1,1,1,3,1,2,1,1,1,1,3,1,3,2,3,2,3,3,1,2,3,1,1,3,2,1,2,4,2,3,1,3,1,1,2,1,1,2,1,1,1,1,1,4,3,2,3,1,2,1,2,2,3,3,2,1,2,2,2,3,3,1,4,2,1,1,1,2,2,1,4,3,2,4,2,1,2,2,1,3,1,1,2,2,3,3,1,1,1,3,1,2,1,4,1,2,1,3,1,1,1,1,1,2,3,4,5,3,2,5,2,2,5,1,3,3,1,2,3,1,2,3,1,1,2,1,1,1,2,3,1,1,2,2,1,2,2,3,2,3,2,2,2,1,4,6,1,1,2,1,1,1,3,1,4,2,2,3,2,1,3,1,3,2,2,1,1,2,1,1,1,1,3,3,2,2,1,3,3,2,1,3,2,2,2,1,2]
